
******************************************************************************
This program contains Ipopt, a library for large-scale nonlinear optimization.
 Ipopt is released as open source code under the Eclipse Public License (EPL).
         For more information visit http://projects.coin-or.org/Ipopt

This version of Ipopt was compiled from source code available at
    https://github.com/IDAES/Ipopt as part of the Institute for the Design of
    Advanced Energy Systems Process Systems Engineering Framework (IDAES PSE
    Framework) Copyright (c) 2018-2019. See https://github.com/IDAES/idaes-pse.

This version of Ipopt was compiled using HSL, a collection of Fortran codes
    for large-scale scientific computation.  All technical papers, sales and
    publicity material resulting from use of the HSL codes within IPOPT must
    contain the following acknowledgement:
        HSL, a collection of Fortran codes for large-scale scientific
        computation. See http://www.hsl.rl.ac.uk.
******************************************************************************

This is Ipopt version 3.13.2, running with linear solver ma27.

Number of nonzeros in equality constraint Jacobian...:      808
Number of nonzeros in inequality constraint Jacobian.:        0
Number of nonzeros in Lagrangian Hessian.............:      702

Total number of variables............................:      351
                     variables with only lower bounds:      108
                variables with lower and upper bounds:      189
                     variables with only upper bounds:        0
Total number of equality constraints.................:      350
Total number of inequality constraints...............:        0
        inequality constraints with only lower bounds:        0
   inequality constraints with lower and upper bounds:        0
        inequality constraints with only upper bounds:        0

iter    objective    inf_pr   inf_du lg(mu)  ||d||  lg(rg) alpha_du alpha_pr  ls
   0  0.0000000e+00 4.81e-01 1.78e-15  -1.0 0.00e+00    -  0.00e+00 0.00e+00   0
   1  3.3427482e-01 4.23e-01 1.52e+04  -1.0 2.87e+05    -  4.75e-01 1.25e-01h  1
   2  3.7542026e-01 4.19e-01 1.53e+04  -1.0 3.15e+05    -  6.99e-01 8.35e-03h  1
   3  3.1976557e+01 7.13e-02 2.61e+04  -1.0 3.34e+05    -  6.99e-01 9.90e-01h  1
   4  4.4705424e+01 3.16e-03 1.28e+03  -1.0 7.02e+04    -  9.27e-01 9.90e-01h  1
   5  4.5249293e+01 3.66e-05 1.06e+02  -1.0 2.88e+03    -  9.89e-01 9.90e-01h  1
   6  4.5249793e+01 3.61e-05 1.12e+07  -1.0 2.43e+02    -  9.90e-01 1.55e-02f  7
   7  4.5256808e+01 3.38e-05 2.14e+07  -1.0 9.93e+02    -  9.90e-01 6.19e-02f  5
   8  4.5369208e+01 1.09e-04 3.39e+05  -1.0 1.01e+03    -  1.00e+00 9.90e-01H  1
   9  4.5366340e+01 1.23e-06 1.25e+07  -1.0 2.72e+01    -  1.00e+00 9.90e-01h  1
iter    objective    inf_pr   inf_du lg(mu)  ||d||  lg(rg) alpha_du alpha_pr  ls
  10  4.5366419e+01 1.28e-08 1.25e+09  -1.0 7.27e-01    -  1.00e+00 9.90e-01h  1
  11  4.5366420e+01 1.28e-10 1.25e+11  -1.0 7.30e-03    -  1.00e+00 9.90e-01h  1
In iteration 11, 27 Slacks too small, adjusting variable bounds
  12  4.5366420e+01 1.50e-12 1.25e+13  -1.0 7.30e-05    -  1.00e+00 9.90e-01h  1
  13  4.5366420e+01 2.70e-12 9.57e-02  -1.0 7.29e-07    -  1.00e+00 1.00e+00h  1
  14  4.5366416e+01 7.23e-13 1.27e+13  -9.0 1.15e+03    -  9.97e-01 2.70e-05f 16
  15  4.5366413e+01 1.52e-12 1.27e+13  -9.0 1.01e+03    -  9.98e-01 3.05e-05f 16
  16  4.5366413e+01 1.46e-12 1.27e+13  -9.0 1.01e+03    -  1.00e+00 3.81e-06f 19
  17  4.5366409e+01 2.48e-12 1.27e+13  -9.0 1.01e+03    -  1.00e+00 3.05e-05f 16
  18  4.5366409e+01 2.43e-12 1.27e+13  -9.0 1.01e+03    -  1.00e+00 3.73e-09f 29
  19  4.5256493e+01 9.87e-04 1.62e+00  -9.0 1.01e+03    -  1.00e+00 1.00e+00f  1
iter    objective    inf_pr   inf_du lg(mu)  ||d||  lg(rg) alpha_du alpha_pr  ls
  20  4.5254703e+01 1.77e-09 4.85e-04  -9.0 1.62e+01    -  1.00e+00 1.00e+00h  1
  21  4.5254703e+01 1.35e-12 1.46e-11  -9.0 1.79e-04    -  1.00e+00 1.00e+00h  1

Number of Iterations....: 21

                                   (scaled)                 (unscaled)
Objective...............:   4.5254702694855339e+01    4.5254702694855339e+01
Dual infeasibility......:   1.4551915228366852e-11    1.4551915228366852e-11
Constraint violation....:   1.3522516439934407e-12    1.3522516439934407e-12
Complementarity.........:   9.0909113822138862e-10    9.0909113822138862e-10
Overall NLP error.......:   1.4284953598795927e-11    9.0909113822138862e-10


Number of objective function evaluations             = 146
Number of objective gradient evaluations             = 22
Number of equality constraint evaluations            = 146
Number of inequality constraint evaluations          = 0
Number of equality constraint Jacobian evaluations   = 22
Number of inequality constraint Jacobian evaluations = 0
Number of Lagrangian Hessian evaluations             = 21
Total CPU secs in IPOPT (w/o function evaluations)   =      0.047
Total CPU secs in NLP function evaluations           =      1.137

EXIT: Optimal Solution Found.
